









































































































30 46 11 37 42 26 45 39 69 
32 3 36 4 38 14 59 76 
70 2 8 63 52 40 47 60 
35 53 22 6 10 31 43 
9 21 33 50 49 74 1 51 7 
28 5 18 0 34 20 13 48 23 54 
68 19 44 25 62 27 41 16 
56 58 64 71 57 55 67 65 75 
17 61 24 72 73 12 15 29 66 
